AES/1_3_4/ssaes_r1-20_c3_rw1_e4_f0_k1-20_aes_1base_box_aes_mc_bidirectional/ExperimentMinisat_r14_k16cnf_2011-10-29-153234/Result
WARNING: for repeatability, setting FPU to use double precision
============================[ Problem Statistics ]=============================
|                                                                             |
|  Number of variables:           820                                         |
|  Number of clauses:            3576                                         |
|  Parse time:                   0.00 s                                       |
|  Eliminated clauses:           0.01 Mb                                      |
|  Simplification time:          0.00 s                                       |
|                                                                             |
=============================[ Search Statistics ]==============================
| Conflicts  |          ORIGINAL         |          LEARNT          | Progress |
|            |    Vars  Clauses Literals |    Limit  Clauses Lit/Cl |          |
================================================================================
|        100 |     560     2832     9312 |     1038      100     14 |  9.756 % |
|        250 |     560     2832     9312 |     1142      250     14 |  9.756 % |
|        475 |     560     2832     9312 |     1256      475     14 |  9.756 % |
|        812 |     560     2832     9312 |     1382      812     12 |  9.756 % |
|       1318 |     560     2832     9312 |     1520     1318     12 |  9.756 % |
|       2077 |     560     2832     9312 |     1672     1275     11 |  9.756 % |
===============================================================================
restarts              : 15
conflicts             : 3000           (18990 /sec)
decisions             : 3418           (0.00 % random) (21636 /sec)
propagations          : 845989         (5355208 /sec)
conflict literals     : 35002          (47.42 % deleted)
Memory used           : 8.00 MB
CPU time              : 0.157975 s

SATISFIABLE
